88
150
120	3
119	5
118	6
117	4
116	1
115	9
114	8
113	6
112	5
111	3
110	4
109	3
108	3
107	3
106	2
105	3
104	4
103	4
102	5
101	7
100	4
99	4
98	4
97	2
95	5
94	3
93	2
92	2
91	3
90	3
89	3
88	3
87	1
86	3
85	6
84	4
83	6
81	3
80	1
79	2
78	3
77	3
76	3
75	1
74	3
73	3
72	2
71	9
70	3
69	3
68	5
67	4
66	3
65	2
64	4
63	1
62	8
61	1
60	1
59	1
58	3
57	4
56	4
55	2
54	2
53	1
52	2
51	3
50	4
49	5
48	1
47	3
46	7
44	4
43	6
42	3
41	1
40	2
39	2
38	3
37	3
36	3
35	4
34	1
33	3
32	2
31	4
30	3
